c B(1) R(1) E(1,1) E(2,1) R(2) E(1,2) B(2) E(4,1) R(4) E(1,4) B(4) E(1,0) E(0,1) B(0) R(0) R(3) E(3,1) E(1,3) B(3) E(2,2) E(2,4) E(4,2) E(0,2) E(2,0) E(3,2) E(2,3) E(4,4) E(4,0) E(0,4) E(3,4) E(4,3) E(0,0) E(0,3) E(3,0) E(3,3)
c 1 2 3 4 5 6 7 8 9 10 11 12 13 14 15 16 17 18 19 20 21 22 23 24 25 26 27 28 29 30 31 32 33 34 35
p cnf 35 60
-32 0
-3 0
-20 0
-35 0
-27 0
14 15 0
1 2 0
7 5 0
19 16 0
11 9 0
13 -12 0
23 -24 0
33 -34 0
29 -28 0
12 -13 0
6 -4 0
18 -17 0
10 -8 0
24 -23 0
4 -6 0
26 -25 0
21 -22 0
34 -33 0
17 -18 0
25 -26 0
30 -31 0
28 -29 0
8 -10 0
22 -21 0
31 -30 0
-14 -15 0
-1 -2 0
-7 -5 0
-19 -16 0
-11 -9 0
14 1 -12 0
14 7 -24 0
14 19 -34 0
14 11 -28 0
1 7 -4 0
1 19 -17 0
1 11 -8 0
7 19 -25 0
7 11 -22 0
19 11 -31 0
15 2 -12 0
15 5 -24 0
15 16 -34 0
15 9 -28 0
2 5 -4 0
2 16 -17 0
2 9 -8 0
5 16 -25 0
5 9 -22 0
16 9 -31 0
32 13 23 33 29 0
12 3 6 18 10 0
24 4 20 26 21 0
34 17 25 35 30 0
28 8 22 31 27 0
